10,8	0,0	10,8	14,8	0,0	0,0	0,0	0,0	0,0	14,5
8,5	13,5	0,0	19,6	13,3	0,0	0,0	6,6	0,0	0,0
0,0	0,0	6,7	0,0	7,4	5,5	0,0	0,0	5,6	0,0
12,9	0,0	5,3	0,0	0,0	0,0	14,8	0,0	0,0	0,0
0,0	10,1	0,0	16,7	6,5	0,0	0,0	8,2	0,0	0,0
0,0	15,4	11,3	0,0	15,3	15,9	0,0	0,0	12,9	0,0
0,0	13,4	0,0	18,7	0,0	0,0	18,6	0,0	0,0	12,8
11,1	0,0	19,7	0,0	0,0	0,0	0,0	0,0	0,0	11,1
0,0	15,2	0,0	20,0	9,3	0,0	0,0	15,0	0,0	0,0
0,0	0,0	15,2	0,0	0,0	12,1	6,2	0,0	0,0	5,7
0,0	8,7	0,0	0,0	19,2	0,0	15,5	0,0	7,0	6,0
10,8	0,0	13,2	0,0	12,4	0,0	5,4	16,3	10,8	0,0
0,0	16,8	0,0	0,0	0,0	15,1	0,0	18,9	19,7	15,0
6,3	17,3	14,4	0,0	0,0	15,6	0,0	6,9	15,5	0,0
13,9	0,0	7,2	0,0	7,7	7,0	15,7	13,6	0,0	0,0
0,0	8,3	0,0	5,6	0,0	19,0	0,0	9,5	0,0	0,0
14,1	0,0	17,7	5,1	17,1	0,0	0,0	7,6	0,0	0,0
0,0	0,0	17,5	0,0	0,0	5,6	16,3	0,0	5,4	7,0
16,8	0,0	0,0	6,5	6,2	18,1	18,3	13,1	0,0	9,0
0,0	9,3	0,0	18,1	0,0	0,0	9,1	0,0	20,0	17,3
									
4,5	3,3	4,2	3,2	3,1	4,1	3,9	3,4	3,9	4,6
